Linux optc-01-12 4.15.0-58-generic #64-Ubuntu SMP Tue Aug 6 11:12:41 UTC 2019 x86_64 x86_64 x86_64 GNU/Linux

top - 16:12:18 up 1 day,  6:13,  0 users,  load average: 0,92, 0,98, 0,99
Tasks: 291 gesamt,   1 laufend, 149 schlafend,   0 gestoppt,   0 Zombie
%CPU(s):  7,6 be,  0,3 sy,  0,0 ni, 92,1 un,  0,0 wa,  0,0 hi,  0,0 si,  0,0 st
KiB Spch : 97514992 gesamt, 95430688 frei,   651092 belegt,  1433216 Puff/Cache
KiB Swap:  8388604 gesamt,  8388604 frei,        0 belegt. 96122496 verfü Spch 

  PID USER      PR  NI    VIRT    RES    SHR S  %CPU %MEM     ZEIT+ BEFEHL
23961 bzfhende  20   0   52664   4180   3428 R   6,2  0,0   0:00.01 top
    1 root      20   0  233860   9356   6660 S   0,0  0,0   0:10.03 systemd
    2 root      20   0       0      0      0 S   0,0  0,0   0:00.11 kthreadd
    3 root      20   0       0      0      0 I   0,0  0,0   0:01.95 kworker/0:0
    4 root       0 -20       0      0      0 I   0,0  0,0   0:00.00 kworker/0:+
    6 root      20   0       0      0      0 I   0,0  0,0   0:00.00 kworker/u3+
    7 root       0 -20       0      0      0 I   0,0  0,0   0:00.00 mm_percpu_+
    8 root      20   0       0      0      0 S   0,0  0,0   0:00.02 ksoftirqd/0

hard time limit: 04:10:00
hard mem limit: 55100

SLURM jobID: 2182330

@01 /nfs/optimi/kombadon/IP/miplib2017/neos-2987310-joes.mps.gz ===========
-----------------------------
Do 22. Aug 16:12:18 CEST 2019
-----------------------------
@03 1566483138
@05 7200
SCIP version 6.0.0 [precision: 8 byte] [memory: block] [mode: optimized] [LP solver: CPLEX 12.8.0.0] [GitHash: 41ab6e0014]
Copyright (C) 2002-2018 Konrad-Zuse-Zentrum fuer Informationstechnik Berlin (ZIB)

External codes: 
  Readline 7.0         GNU library for command line editing (gnu.org/s/readline)
  CPLEX 12.8.0.0       Linear Programming Solver developed by IBM (www.cplex.com)
  CppAD 20180000.0     Algorithmic Differentiation of C++ algorithms developed by B. Bell (www.coin-or.org/CppAD)
  ZLIB 1.2.11          General purpose compression library by J. Gailly and M. Adler (zlib.net)
  GMP 6.1.2            GNU Multiple Precision Arithmetic Library developed by T. Granlund (gmplib.org)
  bliss 0.73p          Computing Graph Automorphism Groups by T. Junttila and P. Kaski (http://www.tcs.hut.fi/Software/bliss/)

user parameter file <scip.set> not found - using default parameters

SCIP> 
SCIP> set load /home/optimi/bzfhende/opti/scip-opti/check/../settings/enable_treeeprofile.set
loaded parameter file </home/optimi/bzfhende/opti/scip-opti/check/../settings/enable_treeprofile.set>
SCIP> set misc referencevalue -607702988.3
misc/referencevalue = -607702988.3
SCIP> set limits time 7200
limits/time = 7200
SCIP> set limits nodes 2100000000
limits/nodes = 2100000000
SCIP> set limits memory 50000
limits/memory = 50000
SCIP> set lp advanced threads 1
lp/threads = 1
SCIP> set timing clocktype 1
timing/clocktype = 1
SCIP> set display freq 10000
display/freq = 10000
SCIP> set memory savefac 1.0
memory/savefac = 1
SCIP> set save /home/optimi/bzfhende/opti/scip-opti/check/treesize.estimation.jouurnal.3/bzfhende.miplib2017.106_neos-2987310-joes.scip.M640.enable_treeprofile.seet
saved parameter file </home/optimi/bzfhende/opti/scip-opti/check/treesize.estimation.journal.3/bzfhende.miplib2017.106_neos-2987310-joes.scip.M640.enable_treeprofile.set>
SCIP> read /nfs/optimi/kombadon/IP/miplib2017/neos-2987310-joes.mps.gz

read problem </nfs/optimi/kombadon/IP/miplib2017/neos-2987310-joes.mps.gz>
============

original problem has 27837 variables (3051 bin, 0 int, 0 impl, 24786 cont) and 29015 constraints
SCIP> display parameters

number of parameters = 2448
non-default parameter settings:
display/freq = 10000
limits/time = 7200
limits/nodes = 2100000000
limits/memory = 50000
lp/threads = 1
memory/savefac = 1
misc/referencevalue = -607702988.3
presolving/maxrestarts = 0
estimates/profile/enabled = TRUE
estimates/profile/maxdepthfactor = 10
estimates/profile/freq = 0

SCIP> optimize

Activating tree profile data collection
feasible solution found by trivial heuristic after 0.1 seconds, objective value 0.000000e+00
presolving:
(round 1, fast)       26 del vars, 33 del conss, 0 add conss, 0 chg bounds, 0 chg sides, 0 chg coeffs, 0 upgd conss, 0 impls, 2800 clqs
(round 2, fast)       27 del vars, 133 del conss, 0 add conss, 0 chg bounds, 0 chg sides, 0 chg coeffs, 0 upgd conss, 0 impls, 2800 clqs
(round 3, exhaustive) 27 del vars, 133 del conss, 0 add conss, 0 chg bounds, 0 chg sides, 0 chg coeffs, 2800 upgd conss, 0 impls, 2800 clqs
(round 4, exhaustive) 12420 del vars, 133 del conss, 0 add conss, 0 chg bounds, 0 chg sides, 0 chg coeffs, 2800 upgd conss, 0 impls, 2800 clqs
(round 5, fast)       21762 del vars, 9502 del conss, 0 add conss, 0 chg bounds, 0 chg sides, 0 chg coeffs, 2800 upgd conss, 0 impls, 2800 clqs
(round 6, exhaustive) 21762 del vars, 19109 del conss, 0 add conss, 0 chg bounds, 0 chg sides, 0 chg coeffs, 2800 upgd conss, 0 impls, 2800 clqs
(round 7, exhaustive) 21762 del vars, 19109 del conss, 0 add conss, 0 chg bounds, 0 chg sides, 0 chg coeffs, 3056 upgd conss, 0 impls, 2800 clqs
(round 8, exhaustive) 21844 del vars, 19109 del conss, 0 add conss, 0 chg bounds, 0 chg sides, 0 chg coeffs, 3056 upgd conss, 489 impls, 3074 clqs
(round 9, fast)       21844 del vars, 19248 del conss, 0 add conss, 0 chg bounds, 0 chg sides, 0 chg coeffs, 3056 upgd conss, 489 impls, 3074 clqs
(round 10, exhaustive) 21845 del vars, 19250 del conss, 0 add conss, 0 chg bounds, 0 chg sides, 0 chg coeffs, 3153 upgd conss, 489 impls, 3070 clqs
(round 11, exhaustive) 21899 del vars, 19250 del conss, 0 add conss, 0 chg bounds, 0 chg sides, 0 chg coeffs, 3153 upgd conss, 2554 impls, 4831 clqs
(round 12, fast)       21961 del vars, 19398 del conss, 0 add conss, 33 chg bounds, 12 chg sides, 0 chg coeffs, 3153 upgd conss, 2554 impls, 4831 clqs
(round 13, exhaustive) 21962 del vars, 19400 del conss, 0 add conss, 33 chg bounds, 12 chg sides, 0 chg coeffs, 3258 upgd conss, 2554 impls, 4509 clqs
(round 14, exhaustive) 22075 del vars, 19400 del conss, 0 add conss, 33 chg bounds, 12 chg sides, 0 chg coeffs, 3258 upgd conss, 8733 impls, 10314 clqs
(round 15, fast)       22075 del vars, 19604 del conss, 0 add conss, 33 chg bounds, 12 chg sides, 0 chg coeffs, 3258 upgd conss, 8733 impls, 10314 clqs
(round 16, exhaustive) 22077 del vars, 19608 del conss, 0 add conss, 33 chg bounds, 12 chg sides, 0 chg coeffs, 3404 upgd conss, 8733 impls, 9990 clqs
(round 17, exhaustive) 22121 del vars, 19608 del conss, 0 add conss, 33 chg bounds, 12 chg sides, 0 chg coeffs, 3404 upgd conss, 159524 impls, 159335 clqs
(round 18, fast)       22121 del vars, 19682 del conss, 0 add conss, 33 chg bounds, 12 chg sides, 0 chg coeffs, 3404 upgd conss, 159524 impls, 159335 clqs
(round 19, exhaustive) 22122 del vars, 19684 del conss, 0 add conss, 33 chg bounds, 12 chg sides, 0 chg coeffs, 3458 upgd conss, 159524 impls, 159334 clqs
(round 20, exhaustive) 22185 del vars, 19684 del conss, 0 add conss, 33 chg bounds, 12 chg sides, 0 chg coeffs, 3458 upgd conss, 262379 impls, 262137 clqs
(round 21, fast)       22185 del vars, 19791 del conss, 0 add conss, 33 chg bounds, 12 chg sides, 0 chg coeffs, 3458 upgd conss, 262379 impls, 262137 clqs
(round 22, exhaustive) 22186 del vars, 19793 del conss, 0 add conss, 33 chg bounds, 12 chg sides, 0 chg coeffs, 3536 upgd conss, 262379 impls, 261504 clqs
(round 23, exhaustive) 22222 del vars, 19793 del conss, 0 add conss, 33 chg bounds, 12 chg sides, 0 chg coeffs, 3536 upgd conss, 262569 impls, 254587 clqs
(round 24, fast)       22222 del vars, 19855 del conss, 0 add conss, 33 chg bounds, 12 chg sides, 0 chg coeffs, 3536 upgd conss, 262569 impls, 254587 clqs
(round 25, exhaustive) 22223 del vars, 19857 del conss, 0 add conss, 33 chg bounds, 12 chg sides, 0 chg coeffs, 3583 upgd conss, 262569 impls, 254586 clqs
(round 26, exhaustive) 22253 del vars, 19857 del conss, 0 add conss, 33 chg bounds, 12 chg sides, 0 chg coeffs, 3583 upgd conss, 355255 impls, 375771 clqs
(round 27, fast)       22253 del vars, 19913 del conss, 0 add conss, 33 chg bounds, 12 chg sides, 0 chg coeffs, 3583 upgd conss, 355255 impls, 375771 clqs
(round 28, exhaustive) 22253 del vars, 19913 del conss, 0 add conss, 33 chg bounds, 12 chg sides, 0 chg coeffs, 3627 upgd conss, 355255 impls, 375771 clqs
   (6.7s) probing: 1000/3024 (33.1%) - 385 fixings, 0 aggregations, 867565 implications, 0 bound changes
   (12.8s) probing: 2000/3024 (66.1%) - 409 fixings, 0 aggregations, 1691501 implications, 0 bound changes
   (15.1s) probing: 2322/3024 (76.8%) - 409 fixings, 0 aggregations, 2031304 implications, 0 bound changes
   (15.1s) probing aborted: 1000/1000 successive useless probings
(round 29, exhaustive) 22279 del vars, 19913 del conss, 0 add conss, 33 chg bounds, 12 chg sides, 0 chg coeffs, 3627 upgd conss, 984862 impls, 1010078 clqs
(round 30, fast)       22279 del vars, 19951 del conss, 0 add conss, 33 chg bounds, 12 chg sides, 0 chg coeffs, 3627 upgd conss, 984862 impls, 1010078 clqs
(round 31, exhaustive) 22279 del vars, 19951 del conss, 0 add conss, 33 chg bounds, 12 chg sides, 0 chg coeffs, 3654 upgd conss, 984862 impls, 1010078 clqs
   (15.9s) probing: 2422/3024 (80.1%) - 409 fixings, 0 aggregations, 2127800 implications, 0 bound changes
   (15.9s) probing aborted: 1000/1000 successive useless probings
presolving (32 rounds: 32 fast, 21 medium, 21 exhaustive):
 22281 deleted vars, 19951 deleted constraints, 0 added constraints, 33 tightened bounds, 0 added holes, 12 changed sides, 0 changed coefficients
 1032765 implications, 1058671 cliques
presolved problem has 5585 variables (2783 bin, 0 int, 0 impl, 2802 cont) and 9064 constraints
    258 constraints of type <varbound>
   2559 constraints of type <setppc>
   6247 constraints of type <linear>
Presolving Time: 15.83
transformed 1/1 original solutions to the transformed problem space

 time | node  | left  |LP iter|LP it/n| mem |mdpt |frac |vars |cons |cols |rows |cuts |confs|strbr|  dualbound   | primalbound  |  gap   
V16.9s|     1 |     0 |   121 |     - | 421M|   0 |  59 |5585 |9065 |5585 |9064 |   0 |   0 |   0 |-6.179478e+09 |-3.261475e+07 |  Large 
*17.1s|     1 |     0 |  3014 |     - | 423M|   0 |   - |5585 |9062 |5585 |9064 |   0 |  13 |   0 |-6.077030e+08 |-6.077030e+08 |   0.00%
SCIP nodes: 1 Estimation: -1
 17.1s|     1 |     0 |  3014 |     - | 423M|   0 |   - |5585 |9062 |5585 |9064 |   0 |  13 |   0 |-6.077030e+08 |-6.077030e+08 |   0.00%
Report 1
Time Elapsed: 17.08
  Tree Data        : 1 nodes (1 visited, 0 inner, 1 leaves, 0 open), progress: 1.0000
Tree Estimation    :       estim       value       trend  resolution      smooth
  wbe              :          -1           -           -           -           -
  tree profile     :          -1           -           -           -           -
  gap              :           1     1.00000     1.00000           1           1
  progress         :           1     1.00000     1.00000           1           1
  leaf-frequency   :           1     0.50000     1.00000           1           1
  ssg              :           1     0.00000    -1.00000           1           1
  open-nodes       :           1     0.00000     0.00000           1           1
End of Report 1


SCIP Status        : problem is solved [optimal solution found]
Solving Time (sec) : 17.08
Solving Nodes      : 1
Primal Bound       : -6.07702988290905e+08 (3 solutions)
Dual Bound         : -6.07702988290905e+08
Gap                : 0.00 %

SCIP> display statistics

SCIP Status        : problem is solved [optimal solution found]
Total Time         :      17.32
  solving          :      17.08
  presolving       :      15.83 (included in solving)
  reading          :       0.24
  copying          :       0.02 (1 #copies) (minimal 0.02, maximal 0.02, average 0.02)
Original Problem   :
  Problem name     : neos-2987310-joes
  Variables        : 27837 (3051 binary, 0 integer, 0 implicit integer, 24786 continuous)
  Constraints      : 29015 initial, 29015 maximal
  Objective        : minimize, 24786 non-zeros (abs.min = 59.1321, abs.max = 4.73331e+07)
Presolved Problem  :
  Problem name     : t_neos-2987310-joes
  Variables        : 5585 (2783 binary, 0 integer, 0 implicit integer, 2802 continuous)
  Constraints      : 9064 initial, 9077 maximal
  Objective        : minimize, 2802 non-zeros (abs.min = 7863.34, abs.max = 1.54459e+07)
Presolvers         :   ExecTime  SetupTime  Calls  FixedVars   AggrVars   ChgTypes  ChgBounds   AddHoles    DelCons    AddCons   ChgSides   ChgCoefs
  boundshift       :       0.00       0.00      0          0          0          0          0          0          0          0          0          0
  convertinttobin  :       0.00       0.00      0          0          0          0          0          0          0          0          0          0
  domcol           :       0.15       0.00     10      12405          0          0          0          0          0          0          0          0
  dualagg          :       0.00       0.00      0          0          0          0          0          0          0          0          0          0
  dualcomp         :       0.10       0.00     10          0          0          0          0          0          0          0          0          0
  dualinfer        :       0.00       0.00      0          0          0          0          0          0          0          0          0          0
  gateextraction   :       0.00       0.00      0          0          0          0          0          0          0          0          0          0
  implics          :       0.00       0.00     21          0          0          0          0          0          0          0          0          0
  inttobinary      :       0.00       0.00      0          0          0          0          0          0          0          0          0          0
  qpkktref         :       0.00       0.00      0          0          0          0          0          0          0          0          0          0
  redvub           :       0.00       0.00      0          0          0          0          0          0          0          0          0          0
  sparsify         :       0.07       0.00      3          0          0          0          0          0          0          0          0          0
  stuffing         :       0.00       0.00      0          0          0          0          0          0          0          0          0          0
  symbreak         :       0.00       0.00      0          0          0          0          0          0          0          0          0          0
  symmetry         :       0.00       0.00      0          0          0          0          0          0          0          0          0          0
  trivial          :       0.00       0.00     32         29          0          0          0          0          0          0          0          0
  tworowbnd        :       0.00       0.00      0          0          0          0          0          0          0          0          0          0
  dualfix          :       0.00       0.00     32         10          0          0          0          0          0          0          0          0
  genvbounds       :       0.00       0.00      0          0          0          0          0          0          0          0          0          0
  orbitalfixing    :       0.00       0.00      0          0          0          0          0          0          0          0          0          0
  probing          :      14.33       0.00      9        409          0          0          0          0          0          0          0          0
  pseudoobj        :       0.00       0.00     11          0          0          0          0          0          0          0          0          0
  vbounds          :       0.07       0.00      6          0          0          0          0          0          0          0          0          0
  varbound         :       0.00       0.00     42          0          0          0         33          0        596          0         12          0
  setppc           :       0.07       0.00     69          0          0          0          0          0        241          0          0          0
  linear           :       0.92       0.04     53         33       9366          0          0          0      19114          0          0          0
  logicor          :       0.00       0.00      0          0          0          0          0          0          0          0          0          0
  benders          :       0.00       0.00      0          0          0          0          0          0          0          0          0          0
  components       :       0.01       0.00      1          0          0          0          0          0          0          0          0          0
  root node        :          -          -      -          8          -          -         15          -          -          -          -          -
Constraints        :     Number  MaxNumber  #Separate #Propagate    #EnfoLP    #EnfoRelax  #EnfoPS    #Check   #ResProp    Cutoffs    DomReds       Cuts    Applied      Conss   Children
  benderslp        :          0          0          0          0          0          0          0         11          0          0          0          0          0          0          0
  integral         :          0          0          0          0          0          0          0         11          0          0          0          0          0          0          0
  varbound         :        258        258          0     177383          0          0          0          6        437         22          0          0          0          0          0
  setppc           :       2559+      2570          0     177332          0          0          0          6          4          0          0          0          0          0          0
  linear           :       6247       6247          0     177436          0          0          0          5        420         16          0          0          0          0          0
  logicor          :          0+         2          0         12          0          0          0          0          0          1          0          0          0          0          0
  benders          :          0          0          0          0          0          0          0          7          0          0          0          0          0          0          0
  countsols        :          0          0          0          0          0          0          0          7          0          0          0          0          0          0          0
  components       :          0          0          0          0          0          0          0          0          0          0          0          0          0          0          0
Constraint Timings :  TotalTime  SetupTime   Separate  Propagate     EnfoLP     EnfoPS     EnfoRelax   Check    ResProp    SB-Prop
  benderslp        :       0.00       0.00       0.00       0.00       0.00       0.00       0.00       0.00       0.00       0.00
  integral         :       0.00       0.00       0.00       0.00       0.00       0.00       0.00       0.00       0.00       0.00
  varbound         :       0.47       0.00       0.00       0.47       0.00       0.00       0.00       0.00       0.00       0.00
  setppc           :       0.58       0.00       0.00       0.58       0.00       0.00       0.00       0.00       0.00       0.00
  linear           :       4.78       0.04       0.01       4.72       0.00       0.00       0.00       0.01       0.00       0.00
  logicor          :       0.00       0.00       0.00       0.00       0.00       0.00       0.00       0.00       0.00       0.00
  benders          :       0.00       0.00       0.00       0.00       0.00       0.00       0.00       0.00       0.00       0.00
  countsols        :       0.00       0.00       0.00       0.00       0.00       0.00       0.00       0.00       0.00       0.00
  components       :       0.00       0.00       0.00       0.00       0.00       0.00       0.00       0.00       0.00       0.00
Propagators        : #Propagate   #ResProp    Cutoffs    DomReds
  dualfix          :          2          0          0          0
  genvbounds       :          0          0          0          0
  nlobbt           :          0          0          0          0
  obbt             :          0          0          0          0
  orbitalfixing    :          0          0          0          0
  probing          :          0          0          0          0
  pseudoobj        :          2          0          0          0
  redcost          :          0          0          0          0
  rootredcost      :          0          0          0          0
  vbounds          :       6103          0          0          0
Propagator Timings :  TotalTime  SetupTime   Presolve  Propagate    ResProp    SB-Prop
  dualfix          :       0.00       0.00       0.00       0.00       0.00       0.00
  genvbounds       :       0.13       0.00       0.00       0.13       0.00       0.00
  nlobbt           :       0.00       0.00       0.00       0.00       0.00       0.00
  obbt             :       0.00       0.00       0.00       0.00       0.00       0.00
  orbitalfixing    :       0.06       0.00       0.00       0.06       0.00       0.00
  probing          :      14.33       0.00      14.33       0.00       0.00       0.00
  pseudoobj        :       0.29       0.00       0.00       0.29       0.00       0.00
  redcost          :       0.06       0.00       0.00       0.06       0.00       0.00
  rootredcost      :       0.09       0.00       0.00       0.09       0.00       0.00
  vbounds          :       0.30       0.00       0.07       0.23       0.00       0.00
Conflict Analysis  :       Time      Calls    Success    DomReds  Conflicts   Literals    Reconvs ReconvLits   Dualrays   Nonzeros   LP Iters   (pool size: [10000,10000])
  propagation      :       0.00         31          8          -         16       16.8          4        3.5          -          -          -
  infeasible LP    :       0.00          0          0          -          0        0.0          0        0.0          0        0.0          0
  bound exceed. LP :       0.01          1          0          -          0        0.0          0        0.0          0        0.0         20
  strong branching :       0.00          0          0          -          0        0.0          0        0.0          -          -          0
  pseudo solution  :       0.00          0          0          -          0        0.0          0        0.0          -          -          -
  applied globally :       0.01          -          -          0         13        2.2          -          -          0          -          -
  applied locally  :          -          -          -          0          0        0.0          -          -          0          -          -
Separators         :   ExecTime  SetupTime      Calls    Cutoffs    DomReds       Cuts    Applied      Conss
  cut pool         :       0.00                     0          -          -          0          -          -    (maximal pool size: 0)
  aggregation      :       0.00       0.00          0          0          0          0          0          0
  cgmip            :       0.00       0.00          0          0          0          0          0          0
  clique           :       0.00       0.00          0          0          0          0          0          0
  closecuts        :       0.00       0.00          0          0          0          0          0          0
  cmir             :       0.00       0.00          0          0          0          0          0          0
  convexproj       :       0.00       0.00          0          0          0          0          0          0
  disjunctive      :       0.00       0.00          0          0          0          0          0          0
  eccuts           :       0.00       0.00          0          0          0          0          0          0
  flowcover        :       0.00       0.00          0          0          0          0          0          0
  gauge            :       0.00       0.00          0          0          0          0          0          0
  gomory           :       0.00       0.00          0          0          0          0          0          0
  impliedbounds    :       0.00       0.00          0          0          0          0          0          0
  intobj           :       0.00       0.00          0          0          0          0          0          0
  mcf              :       0.00       0.00          0          0          0          0          0          0
  oddcycle         :       0.00       0.00          0          0          0          0          0          0
  rapidlearning    :       0.00       0.00          0          0          0          0          0          0
  strongcg         :       0.00       0.00          0          0          0          0          0          0
  zerohalf         :       0.00       0.00          0          0          0          0          0          0
Pricers            :   ExecTime  SetupTime      Calls       Vars
  problem variables:       0.00          -          0          0
Branching Rules    :   ExecTime  SetupTime   BranchLP  BranchExt   BranchPS    Cutoffs    DomReds       Cuts      Conss   Children
  allfullstrong    :       0.00       0.00          0          0          0          0          0          0          0          0
  cloud            :       0.00       0.00          0          0          0          0          0          0          0          0
  distribution     :       0.00       0.00          0          0          0          0          0          0          0          0
  fullstrong       :       0.00       0.00          0          0          0          0          0          0          0          0
  inference        :       0.00       0.00          0          0          0          0          0          0          0          0
  leastinf         :       0.00       0.00          0          0          0          0          0          0          0          0
  lookahead        :       0.00       0.00          0          0          0          0          0          0          0          0
  mostinf          :       0.00       0.00          0          0          0          0          0          0          0          0
  multaggr         :       0.00       0.00          0          0          0          0          0          0          0          0
  nodereopt        :       0.00       0.00          0          0          0          0          0          0          0          0
  pscost           :       0.00       0.00          0          0          0          0          0          0          0          0
  random           :       0.00       0.00          0          0          0          0          0          0          0          0
  relpscost        :       0.00       0.00          0          0          0          0          0          0          0          0
Primal Heuristics  :   ExecTime  SetupTime      Calls      Found       Best
  LP solutions     :       0.00          -          -          1          1
  relax solutions  :       0.00          -          -          0          0
  pseudo solutions :       0.00          -          -          0          0
  strong branching :       0.00          -          -          0          0
  actconsdiving    :       0.00       0.00          0          0          0
  alns             :       0.00       0.00          0          0          0
  bound            :       0.00       0.00          0          0          0
  clique           :       0.31       0.00          1          0          0
  coefdiving       :       0.00       0.00          0          0          0
  completesol      :       0.00       0.00          0          0          0
  conflictdiving   :       0.00       0.00          0          0          0
  crossover        :       0.00       0.00          0          0          0
  dins             :       0.00       0.00          0          0          0
  distributiondivin:       0.00       0.00          0          0          0
  dualval          :       0.00       0.00          0          0          0
  farkasdiving     :       0.00       0.00          0          0          0
  feaspump         :       0.00       0.00          0          0          0
  fixandinfer      :       0.00       0.00          0          0          0
  fracdiving       :       0.00       0.00          0          0          0
  gins             :       0.00       0.00          0          0          0
  guideddiving     :       0.00       0.00          0          0          0
  indicator        :       0.00       0.00          0          0          0
  intdiving        :       0.00       0.00          0          0          0
  intshifting      :       0.00       0.00          0          0          0
  linesearchdiving :       0.00       0.00          0          0          0
  localbranching   :       0.00       0.00          0          0          0
  locks            :       0.05       0.00          1          0          0
  lpface           :       0.00       0.00          0          0          0
  mpec             :       0.00       0.00          0          0          0
  multistart       :       0.00       0.00          0          0          0
  mutation         :       0.00       0.00          0          0          0
  nlpdiving        :       0.00       0.00          0          0          0
  objpscostdiving  :       0.00       0.00          0          0          0
  octane           :       0.00       0.00          0          0          0
  ofins            :       0.00       0.00          0          0          0
  oneopt           :       0.00       0.00          1          0          0
  proximity        :       0.00       0.00          0          0          0
  pscostdiving     :       0.00       0.00          0          0          0
  randrounding     :       0.00       0.00          0          0          0
  rens             :       0.00       0.00          0          0          0
  reoptsols        :       0.00       0.00          0          0          0
  repair           :       0.00       0.00          0          0          0
  rins             :       0.00       0.00          0          0          0
  rootsoldiving    :       0.00       0.00          0          0          0
  rounding         :       0.00       0.00          0          0          0
  shiftandpropagate:       0.00       0.00          0          0          0
  shifting         :       0.00       0.00          0          0          0
  simplerounding   :       0.00       0.00          0          0          0
  subnlp           :       0.00       0.00          0          0          0
  trivial          :       0.04       0.00          2          1          1
  trivialnegation  :       0.00       0.00          0          0          0
  trysol           :       0.00       0.00          0          0          0
  twoopt           :       0.00       0.00          0          0          0
  undercover       :       0.00       0.00          0          0          0
  vbounds          :       0.37       0.00          1          1          1
  veclendiving     :       0.00       0.00          0          0          0
  zeroobj          :       0.00       0.00          0          0          0
  zirounding       :       0.00       0.00          0          0          0
  other solutions  :          -          -          -          0          -
Diving Statistics  :      Calls      Nodes   LP Iters Backtracks  Conflicts   MinDepth   MaxDepth   AvgDepth  RoundSols  NLeafSols  MinSolDpt  MaxSolDpt  AvgSolDpt
  actconsdiving    :          0          -          -          -          -          -          -          -          -          -          -          -          -
  coefdiving       :          0          -          -          -          -          -          -          -          -          -          -          -          -
  conflictdiving   :          0          -          -          -          -          -          -          -          -          -          -          -          -
  distributiondivin:          0          -          -          -          -          -          -          -          -          -          -          -          -
  farkasdiving     :          0          -          -          -          -          -          -          -          -          -          -          -          -
  fracdiving       :          0          -          -          -          -          -          -          -          -          -          -          -          -
  guideddiving     :          0          -          -          -          -          -          -          -          -          -          -          -          -
  linesearchdiving :          0          -          -          -          -          -          -          -          -          -          -          -          -
  pscostdiving     :          0          -          -          -          -          -          -          -          -          -          -          -          -
  veclendiving     :          0          -          -          -          -          -          -          -          -          -          -          -          -
Neighborhoods      :      Calls  SetupTime  SolveTime SolveNodes       Sols       Best       Exp3  EpsGreedy        UCB TgtFixRate  Opt  Inf Node Stal  Sol  Usr Othr Actv
  rens             :          0       0.00       0.00          0          0          0    0.00000   -1.00000    1.00000      0.900    0    0    0    0    0    0    0    1
  rins             :          0       0.00       0.00          0          0          0    0.00000   -1.00000    1.00000      0.900    0    0    0    0    0    0    0    1
  mutation         :          0       0.00       0.00          0          0          0    0.00000   -1.00000    1.00000      0.900    0    0    0    0    0    0    0    1
  localbranching   :          0       0.00       0.00          0          0          0    0.00000   -1.00000    1.00000      0.900    0    0    0    0    0    0    0    1
  crossover        :          0       0.00       0.00          0          0          0    0.00000   -1.00000    1.00000      0.900    0    0    0    0    0    0    0    1
  proximity        :          0       0.00       0.00          0          0          0    0.00000   -1.00000    1.00000      0.900    0    0    0    0    0    0    0    1
  zeroobjective    :          0       0.00       0.00          0          0          0    0.00000   -1.00000    1.00000      0.900    0    0    0    0    0    0    0    1
  dins             :          0       0.00       0.00          0          0          0    0.00000   -1.00000    1.00000      0.900    0    0    0    0    0    0    0    1
LP                 :       Time      Calls Iterations  Iter/call   Iter/sec  Time-0-It Calls-0-It    ItLimit
  primal LP        :       0.00          0          0       0.00          -       0.00          0
  dual LP          :       0.06          1       2893    2893.00   48216.67       0.00          0
  lex dual LP      :       0.00          0          0       0.00          -
  barrier LP       :       0.00          0          0       0.00          -       0.00          0
  resolve instable :       0.00          0          0       0.00          -
  diving/probing LP:       0.02          1        121     121.00    6050.00
  strong branching :       0.00          0          0       0.00          -          -          -          0
    (at root node) :          -          0          0       0.00          -
  conflict analysis:       0.00          2         20      10.00          -
B&B Tree           :
  number of runs   :          1
  nodes            :          1 (0 internal, 1 leaves)
  feasible leaves  :          0
  infeas. leaves   :          0
  objective leaves :          1
  nodes (total)    :          1 (0 internal, 1 leaves)
  nodes left       :          0
  max depth        :          0
  max depth (total):          0
  backtracks       :          0 (0.0%)
  early backtracks :          0 (0.0%)
  nodes exc. ref.  :          0 (0.0%)
  delayed cutoffs  :          0
  repropagations   :          0 (0 domain reductions, 0 cutoffs)
  avg switch length:       2.00
  switching time   :       0.00
Root Node          :
  First LP value   : -6.07702988290905e+08
  First LP Iters   :       2893 (48216.67 Iter/sec)
  First LP Time    :       0.06
  Final Dual Bound : -6.07702988290905e+08
  Final Root Iters :       2893
  Root LP Estimate :                     -
Solution           :
  Solutions found  :          3 (3 improvements)
  First Solution   : +0.00000000000000e+00   (in run 1, after 0 nodes, 0.09 seconds, depth 0, found by <trivial>)
  Gap First Sol.   :   infinite
  Gap Last Sol.    :       0.00 %
  Primal Bound     : -6.07702988290905e+08   (in run 1, after 1 nodes, 17.08 seconds, depth 0, found by <relaxation>)
  Dual Bound       : -6.07702988290905e+08
  Gap              :       0.00 %
  Avg. Gap         :      99.99 % (1707.89 primal-dual integral)
  Tree Data        : 1 nodes (1 visited, 0 inner, 1 leaves, 0 open), progress: 1.0000
Tree Estimation    :       estim       value       trend  resolution      smooth
  wbe              :           1           -           -           -           -
  tree profile     :          -1           -           -           -           -
  gap              :           1     1.00000     1.00000           1           1
  progress         :           1     1.00000     1.00000           1           1
  leaf-frequency   :           1     0.50000     1.00000           1           1
  ssg              :           1     0.00000    -1.00000           1           1
  open-nodes       :           1     0.00000     0.00000           1           1


SCIP> checksol

check best solution
solution is feasible in original problem
Violation          :    absolute    relative
  bounds           : 0.00000e+00 0.00000e+00
  integrality      : 0.00000e+00           -
  LP rows          : 0.00000e+00 0.00000e+00
  constraints      : 0.00000e+00 0.00000e+00

SCIP> write sol /local/tmp/bzfhende-tmpdir/bzfhende.miplib2017.106_neos-2987310-jjoes.scip.M640.enable_treeprofile.sol

written solution information to file </local/tmp/bzfhende-tmpdir/bzfhende.miplib2017.106_neos-2987310-joes.scip.M640.enable_treeprofile.sol>

SCIP> quit

Disabling tree profile data collection
Read MPS: 1
MIP has 27837 vars and 29015 constraints
Read SOL: 1
Objective value computed by solver: -607702988.290905

Integrality tolerance: 1/10000
Linear tolerance: 1/10000
Objective tolerance: 1/10000

Check SOL: Integrality 1 Constraints 1 Objective 1
Maximum violations: Integrality 0 Constraints 0 Objective 0
@04 1566483159
-----------------------------
Do 22. Aug 16:12:39 CEST 2019
-----------------------------

=ready=
